p cnf 132 351
-7 -2 0
-7 -3 0
7 2 3 0
-8 -1 0
-8 7 0
8 1 -7 0
-9 1 0
-9 -7 0
9 -1 7 0
-10 -8 0
-10 -9 0
10 8 9 0
-11 1 0
-11 10 0
11 -1 -10 0
-12 2 0
-12 3 0
12 -2 -3 0
-13 -7 0
-13 -12 0
13 7 12 0
-14 1 0
-14 13 0
14 -1 -13 0
-15 -1 0
-15 3 0
15 1 -3 0
-16 -14 0
-16 -15 0
16 14 15 0
-17 2 0
-17 -4 0
17 -2 4 0
-18 16 0
-18 -17 0
18 -16 17 0
-19 -4 0
-19 -6 0
19 4 6 0
-20 4 0
-20 6 0
20 -4 -6 0
-21 -19 0
-21 -20 0
21 19 20 0
-22 5 0
-22 21 0
22 -5 -21 0
-23 -5 0
-23 6 0
23 5 -6 0
-24 -22 0
-24 -23 0
24 22 23 0
-25 2 0
-25 24 0
25 -2 -24 0
-26 16 0
-26 -25 0
26 -16 25 0
-27 -5 0
-27 19 0
27 5 -19 0
-28 5 0
-28 -19 0
28 -5 19 0
-29 -27 0
-29 -28 0
29 27 28 0
-30 5 0
-30 29 0
30 -5 -29 0
-31 2 0
-31 -30 0
31 -2 30 0
-32 16 0
-32 -31 0
32 -16 31 0
-33 -11 0
-33 32 0
33 11 -32 0
-34 2 0
-34 33 0
34 -2 -33 0
-35 -30 0
-35 -34 0
35 30 34 0
-36 30 0
-36 34 0
36 -30 -34 0
-37 -35 0
-37 -36 0
37 35 36 0
-38 -16 0
-38 25 0
38 16 -25 0
-39 37 0
-39 -38 0
39 -37 38 0
-40 -26 0
-40 -39 0
40 26 39 0
-41 -11 0
-41 -40 0
41 11 40 0
-42 2 0
-42 41 0
42 -2 -41 0
-43 24 0
-43 -42 0
43 -24 42 0
-44 -24 0
-44 42 0
44 24 -42 0
-45 -43 0
-45 -44 0
45 43 44 0
-46 -16 0
-46 17 0
46 16 -17 0
-47 45 0
-47 -46 0
47 -45 46 0
-48 -18 0
-48 -47 0
48 18 47 0
-49 -11 0
-49 -48 0
49 11 48 0
-50 -26 0
-50 -38 0
50 26 38 0
-51 41 0
-51 50 0
51 -41 -50 0
-52 -37 0
-52 -51 0
52 37 51 0
-53 37 0
-53 51 0
53 -37 -51 0
-54 -52 0
-54 -53 0
54 52 53 0
-55 11 0
-55 48 0
55 -11 -48 0
-56 54 0
-56 -55 0
56 -54 55 0
-57 -49 0
-57 -56 0
57 49 56 0
-58 2 0
-58 -57 0
58 -2 57 0
-59 4 0
-59 58 0
59 -4 -58 0
-60 -4 0
-60 -58 0
60 4 58 0
-61 -59 0
-61 -60 0
61 59 60 0
62 -2 61 0
-63 3 0
-63 -57 0
63 -3 57 0
-64 -1 0
-64 -5 0
64 1 5 0
-65 1 0
-65 5 0
65 -1 -5 0
-66 -64 0
-66 -65 0
66 64 65 0
-67 -41 0
-67 57 0
67 41 -57 0
-68 41 0
-68 -57 0
68 -41 57 0
-69 -67 0
-69 -68 0
69 67 68 0
-70 66 0
-70 69 0
70 -66 -69 0
-71 41 0
-71 -66 0
71 -41 66 0
-72 -70 0
-72 -71 0
72 70 71 0
-73 2 0
-73 -72 0
73 -2 72 0
-74 63 0
-74 73 0
74 -63 -73 0
-75 -63 0
-75 -73 0
75 63 73 0
-76 -74 0
-76 -75 0
76 74 75 0
-77 -58 0
-77 -76 0
77 58 76 0
-78 58 0
-78 76 0
78 -58 -76 0
-79 -77 0
-79 -78 0
79 77 78 0
-80 6 0
-80 79 0
80 -6 -79 0
-81 -6 0
-81 -79 0
81 6 79 0
-82 -80 0
-82 -81 0
82 80 81 0
-83 59 0
-83 82 0
83 -59 -82 0
-84 -80 0
-84 -83 0
84 80 83 0
-85 1 0
-85 -57 0
85 -1 57 0
-86 3 0
-86 -72 0
86 -3 72 0
-87 85 0
-87 86 0
87 -85 -86 0
-88 -85 0
-88 -86 0
88 85 86 0
-89 -87 0
-89 -88 0
89 87 88 0
-90 74 0
-90 89 0
90 -74 -89 0
-91 -74 0
-91 -89 0
91 74 89 0
-92 -90 0
-92 -91 0
92 90 91 0
-93 -33 0
-93 67 0
93 33 -67 0
-94 33 0
-94 -67 0
94 -33 67 0
-95 -93 0
-95 -94 0
95 93 94 0
-96 66 0
-96 95 0
96 -66 -95 0
-97 33 0
-97 -66 0
97 -33 66 0
-98 -96 0
-98 -97 0
98 96 97 0
-99 2 0
-99 -98 0
99 -2 98 0
-100 92 0
-100 99 0
100 -92 -99 0
-101 -92 0
-101 -99 0
101 92 99 0
-102 -100 0
-102 -101 0
102 100 101 0
-103 77 0
-103 -102 0
103 -77 102 0
-104 -77 0
-104 102 0
104 77 -102 0
-105 -103 0
-105 -104 0
105 103 104 0
-106 5 0
-106 105 0
106 -5 -105 0
-107 -5 0
-107 -105 0
107 5 105 0
-108 -106 0
-108 -107 0
108 106 107 0
-109 -84 0
-109 108 0
109 84 -108 0
-110 84 0
-110 -108 0
110 -84 108 0
-111 -109 0
-111 -110 0
111 109 110 0
-112 -59 0
-112 -82 0
112 59 82 0
-113 -83 0
-113 -112 0
113 83 112 0
-114 -61 0
-114 -113 0
114 61 113 0
115 -61 -113 0
-116 -114 0
-116 -115 0
-117 111 0
-117 116 0
-118 -111 0
-118 113 0
119 117 118 0
-120 16 0
-120 -119 0
121 -62 120 0
122 16 -119 0
-123 -121 0
-123 -122 0
124 111 -114 0
125 -111 114 0
-126 -124 0
-126 -125 0
-127 111 0
-127 126 0
-128 -11 0
-128 127 0
129 123 128 0
130 -11 127 0
-131 -129 0
-131 -130 0
-132 -8 0
-132 131 0
132 0
